--------------------------------------------------------------------------------(Solver execution current time: 0.00014019012451171875)
[INFO] Input Seed : 0
--------------------------------------------------------------------------------(Solver execution current time: 0.00016760826110839844)
[INFO] Input time limit : 30
--------------------------------------------------------------------------------(Solver execution current time: 0.00018835067749023438)
[INFO] Command line arguments read with no errors.
--------------------------------------------------------------------------------(Solver execution current time: 0.015599489212036133)
[INFO] Input file read with no errors.
--------------------------------------------------------------------------------(Solver execution current time: 0.015685319900512695)
[INFO] Starting solver.
--------------------------------------------------------------------------------(Solver execution current time: 0.015719890594482422)
[INFO] Starting construction
--------------------------------------------------------------------------------(Solver execution current time: 3.973951816558838)
[INFO] Finished construction
--------------------------------------------------------------------------------(Solver execution current time: 3.9740471839904785)
[SOLUTION]
Basic Greedy Heuristic
Exec Time: 3.9582293033599854
obj_value: -43; obj_routes: 901
Route 1 : 31 40 12 21 81 62 8 71 41 46 91 96 90 58 
Route 2 : 20 28 49 70 78 10 60 99 38 6 56 88 
Route 3 : 23 1 73 51 18 25 68 75 
Route 4 : 5 55 13 63 35 14 47 64 85 97 7 57 4 54 
Route 5 : 26 27 76 17 67 37 87 3 22 72 77 53 
Route 6 : 15 30 80 33 42 83 44 92 94 65 43 45 95 93 36 86 
Route 7 : 39 29 89 79 11 61 24 48 98 74 

--------------------------------------------------------------------------------(Solver execution current time: 3.9746079444885254)
[SOLUTION]
Solution after BasicGreedyLimitedHeterogeneousFleet
obj_value: -43; obj_routes: 901
Route 1 : 31 40 12 21 81 62 8 71 41 46 91 96 90 58 
Route 2 : 20 28 49 70 78 10 60 99 38 6 56 88 
Route 3 : 23 1 73 51 18 25 68 75 
Route 4 : 5 55 13 63 35 14 47 64 85 97 7 57 4 54 
Route 5 : 26 27 76 17 67 37 87 3 22 72 77 53 
Route 6 : 15 30 80 33 42 83 44 92 94 65 43 45 95 93 36 86 
Route 7 : 39 29 89 79 11 61 24 48 98 74 

--------------------------------------------------------------------------------(Solver execution current time: 3.9753172397613525)
[INFO] Starting metaheuristic
--------------------------------------------------------------------------------(Solver execution current time: 3.9778263568878174)
[INFO] AGES EXCLUDED
--------------------------------------------------------------------------------(Solver execution current time: 10.60924744606018)
[SOLUTION]
LNS
IT: 27
Exec Time: 6.628766298294067
Improved
obj_value: -45; obj_routes: 880
Route 1 : 31 40 12 21 81 62 41 71 91 16 66 90 8 58 
Route 2 : 20 28 49 70 78 10 60 99 6 56 37 87 
Route 3 : 23 1 73 51 18 25 68 75 
Route 4 : 5 55 13 63 35 14 64 43 85 32 82 7 57 93 
Route 5 : 26 27 76 17 2 67 52 3 22 72 77 46 96 53 
Route 6 : 30 80 39 33 15 65 83 89 9 59 34 36 84 86 4 54 
Route 7 : 29 48 98 47 79 11 97 38 61 24 74 88 

--------------------------------------------------------------------------------(Solver execution current time: 10.680804967880249)
[SOLUTION]
PartitionMaxRequestsHF
Exec Time: 0.0692596435546875
obj_value: -45; obj_routes: 880
Route 1 : 23 1 73 51 18 25 68 75 
Route 2 : 31 40 12 21 81 62 41 71 91 16 66 90 8 58 
Route 3 : 20 28 49 70 78 10 60 99 6 56 37 87 
Route 4 : 5 55 13 63 35 14 64 43 85 32 82 7 57 93 
Route 5 : 26 27 76 17 2 67 52 3 22 72 77 46 96 53 
Route 6 : 30 80 39 33 15 65 83 89 9 59 34 36 84 86 4 54 
Route 7 : 29 48 98 47 79 11 97 38 61 24 74 88 

--------------------------------------------------------------------------------(Solver execution current time: 14.721400737762451)
[SOLUTION]
Original Perturbation
Exec Time: 4.03987979888916
obj_value: -45; obj_routes: 930
Route 1 : 31 40 12 21 81 2 62 52 71 9 59 16 66 46 96 90 
Route 2 : 20 28 49 70 78 10 60 25 99 36 75 86 
Route 3 : 23 1 73 51 38 88 
Route 4 : 5 55 13 63 35 14 64 85 7 57 34 84 18 6 68 56 
Route 5 : 26 47 27 76 17 67 97 3 22 72 77 11 61 53 
Route 6 : 30 80 39 33 15 65 43 83 89 32 82 93 8 58 
Route 7 : 48 98 41 91 29 79 37 87 24 74 4 54 

--------------------------------------------------------------------------------(Solver execution current time: 14.722569942474365)
[SOLUTION]
SBMath
IT: 1
ITs witout improving: 1
IT time: 10.744745254516602
Time since begin: 10.746058702468872
obj_value: -45; obj_routes: 930
Route 1 : 31 40 12 21 81 2 62 52 71 9 59 16 66 46 96 90 
Route 2 : 20 28 49 70 78 10 60 25 99 36 75 86 
Route 3 : 23 1 73 51 38 88 
Route 4 : 5 55 13 63 35 14 64 85 7 57 34 84 18 6 68 56 
Route 5 : 26 47 27 76 17 67 97 3 22 72 77 11 61 53 
Route 6 : 30 80 39 33 15 65 43 83 89 32 82 93 8 58 
Route 7 : 48 98 41 91 29 79 37 87 24 74 4 54 

--------------------------------------------------------------------------------(Solver execution current time: 14.722739696502686)
[SOLUTION]
SBMath
IT: 1
ITs witout improving: 1
IT time: 10.744745254516602
Time since begin: 10.746058702468872
obj_value: -45; obj_routes: 880
Route 1 : 31 40 12 21 81 62 41 71 91 16 66 90 8 58 
Route 2 : 20 28 49 70 78 10 60 99 6 56 37 87 
Route 3 : 23 1 73 51 18 25 68 75 
Route 4 : 5 55 13 63 35 14 64 43 85 32 82 7 57 93 
Route 5 : 26 27 76 17 2 67 52 3 22 72 77 46 96 53 
Route 6 : 30 80 39 33 15 65 83 89 9 59 34 36 84 86 4 54 
Route 7 : 29 48 98 47 79 11 97 38 61 24 74 88 

--------------------------------------------------------------------------------(Solver execution current time: 14.723631143569946)
[INFO] AGES EXCLUDED
--------------------------------------------------------------------------------(Solver execution current time: 22.083040952682495)
[SOLUTION]
LNS
IT: 40
Exec Time: 7.3567540645599365
Improved
obj_value: -45; obj_routes: 918
Route 1 : 31 40 12 21 81 2 62 52 71 9 59 16 66 46 96 90 
Route 2 : 20 28 49 70 78 10 60 25 99 36 75 86 
Route 3 : 23 1 73 51 50 100 
Route 4 : 5 55 13 63 35 14 64 85 7 57 34 84 18 6 68 56 
Route 5 : 26 47 27 76 17 67 38 97 3 22 72 77 88 53 
Route 6 : 30 80 39 33 15 65 43 83 89 32 82 93 8 58 
Route 7 : 48 98 41 91 29 79 37 87 24 4 74 54 

--------------------------------------------------------------------------------(Solver execution current time: 22.096752405166626)
[SOLUTION]
PartitionMaxRequestsHF
Exec Time: 0.011292219161987305
obj_value: -45; obj_routes: 918
Route 1 : 31 40 12 21 81 2 62 52 71 9 59 16 66 46 96 90 
Route 2 : 20 28 49 70 78 10 60 25 99 36 75 86 
Route 3 : 23 1 73 51 50 100 
Route 4 : 5 55 13 63 35 14 64 85 7 57 34 84 18 6 68 56 
Route 5 : 26 47 27 76 17 67 38 97 3 22 72 77 88 53 
Route 6 : 30 80 39 33 15 65 43 83 89 32 82 93 8 58 
Route 7 : 48 98 41 91 29 79 37 87 24 4 74 54 

--------------------------------------------------------------------------------(Solver execution current time: 29.9205105304718)
[SOLUTION]
Original Perturbation
Exec Time: 7.823004961013794
obj_value: -45; obj_routes: 948
Route 1 : 31 40 12 21 81 2 62 52 71 32 82 18 46 68 96 90 
Route 2 : 20 28 49 70 78 10 60 25 99 75 
Route 3 : 23 1 73 51 4 54 
Route 4 : 5 55 13 63 35 14 64 85 7 57 34 84 9 59 36 6 86 56 
Route 5 : 26 47 76 16 66 39 38 89 97 3 22 72 88 53 
Route 6 : 17 67 30 80 33 15 65 43 83 41 91 93 8 58 
Route 7 : 48 98 29 79 37 87 24 27 77 74 50 100 

--------------------------------------------------------------------------------(Solver execution current time: 29.92167615890503)
[SOLUTION]
SBMath
IT: 2
ITs witout improving: 2
IT time: 15.198051929473877
Time since begin: 25.945165634155273
obj_value: -45; obj_routes: 948
Route 1 : 31 40 12 21 81 2 62 52 71 32 82 18 46 68 96 90 
Route 2 : 20 28 49 70 78 10 60 25 99 75 
Route 3 : 23 1 73 51 4 54 
Route 4 : 5 55 13 63 35 14 64 85 7 57 34 84 9 59 36 6 86 56 
Route 5 : 26 47 76 16 66 39 38 89 97 3 22 72 88 53 
Route 6 : 17 67 30 80 33 15 65 43 83 41 91 93 8 58 
Route 7 : 48 98 29 79 37 87 24 27 77 74 50 100 

--------------------------------------------------------------------------------(Solver execution current time: 29.921839714050293)
[SOLUTION]
SBMath
IT: 2
ITs witout improving: 2
IT time: 15.198051929473877
Time since begin: 25.945165634155273
obj_value: -45; obj_routes: 880
Route 1 : 31 40 12 21 81 62 41 71 91 16 66 90 8 58 
Route 2 : 20 28 49 70 78 10 60 99 6 56 37 87 
Route 3 : 23 1 73 51 18 25 68 75 
Route 4 : 5 55 13 63 35 14 64 43 85 32 82 7 57 93 
Route 5 : 26 27 76 17 2 67 52 3 22 72 77 46 96 53 
Route 6 : 30 80 39 33 15 65 83 89 9 59 34 36 84 86 4 54 
Route 7 : 29 48 98 47 79 11 97 38 61 24 74 88 

--------------------------------------------------------------------------------(Solver execution current time: 29.92276382446289)
[INFO] AGES EXCLUDED
--------------------------------------------------------------------------------(Solver execution current time: 30.01119112968445)
[WARNING] Time Limit Exceeded
--------------------------------------------------------------------------------(Solver execution current time: 30.011295795440674)
[WARNING] Searching current best solution.
--------------------------------------------------------------------------------(Solver execution current time: 30.012149333953857)
[WARNING] Current best solution found.
--------------------------------------------------------------------------------(Solver execution current time: 30.012795209884644)
[INFO] Algorithm execution time : 30.013546228408813
--------------------------------------------------------------------------------(Solver execution current time: 30.013420343399048)
[SOLUTION]
Final Solution Verification
====================================
Constraints verification: 
Homogenous Capacity Constraint OK
Time Windwos Constraint OK
Pickup and Delivery Constraint OK
Fixed Requests Constraint OK
Limited Fleet Constraint OK
Heterogeneous Fleet Constraint OK
====================================
Obj Func verification: 
SOLUTION COST OK
------------------------------------
ROUTES TOTAL COST OK
------------------------------------
REQUESTS TOTAL COST OK
------------------------------------
OBJECTIVE VALUE: -45
ROUTES VALUE: 880
------------------------------------

Best Solution: 
obj_value: -45; obj_routes: 880
Route 1 : 31 40 12 21 81 62 41 71 91 16 66 90 8 58 
Route 2 : 20 28 49 70 78 10 60 99 6 56 37 87 
Route 3 : 23 1 73 51 18 25 68 75 
Route 4 : 5 55 13 63 35 14 64 43 85 32 82 7 57 93 
Route 5 : 26 27 76 17 2 67 52 3 22 72 77 46 96 53 
Route 6 : 30 80 39 33 15 65 83 89 9 59 34 36 84 86 4 54 
Route 7 : 29 48 98 47 79 11 97 38 61 24 74 88 

--------------------------------------------------------------------------------